Code/simulation_1_0.smt2
(set-logic QF_NRA_ODE)
(declare-fun waypointy () Real)
(declare-fun waypointx () Real)
(declare-fun v () Real)
(declare-fun tau () Real)
(declare-fun sy_d_spline () Real)
(declare-fun sy_d () Real)
(declare-fun sy_0 () Real)
(declare-fun sy () Real)
(declare-fun sx_d_spline () Real)
(declare-fun sx_d () Real)
(declare-fun sx_0 () Real)
(declare-fun sx () Real)
(declare-fun simtime () Real)
(declare-fun schedtime () Real)
(declare-fun lookahead () Real)
(declare-fun kappa_d_spline () Real)
(declare-fun delta () Real)
(declare-fun Psi_dot_d_spline () Real)
(declare-fun Psi_dot_d () Real)
(declare-fun Psi_dot () Real)
(declare-fun Psi_d_spline () Real)
(declare-fun Psi_d () Real)
(declare-fun Psi () Real)
(declare-fun Beta () Real)
(declare-fun waypointy_0_0 () Real)
(declare-fun waypointy_0_t () Real)
(declare-fun waypointy_1_0 () Real)
(declare-fun waypointy_1_t () Real)
(declare-fun waypointx_0_0 () Real)
(declare-fun waypointx_0_t () Real)
(declare-fun waypointx_1_0 () Real)
(declare-fun waypointx_1_t () Real)
(declare-fun v_0_0 () Real)
(declare-fun v_0_t () Real)
(declare-fun v_1_0 () Real)
(declare-fun v_1_t () Real)
(declare-fun tau_0_0 () Real)
(declare-fun tau_0_t () Real)
(declare-fun tau_1_0 () Real)
(declare-fun tau_1_t () Real)
(declare-fun sy_d_spline_0_0 () Real)
(declare-fun sy_d_spline_0_t () Real)
(declare-fun sy_d_spline_1_0 () Real)
(declare-fun sy_d_spline_1_t () Real)
(declare-fun sy_d_0_0 () Real)
(declare-fun sy_d_0_t () Real)
(declare-fun sy_d_1_0 () Real)
(declare-fun sy_d_1_t () Real)
(declare-fun sy_0_0_0 () Real)
(declare-fun sy_0_0_t () Real)
(declare-fun sy_0_1_0 () Real)
(declare-fun sy_0_1_t () Real)
(declare-fun sy_0_0 () Real)
(declare-fun sy_0_t () Real)
(declare-fun sy_1_0 () Real)
(declare-fun sy_1_t () Real)
(declare-fun sx_d_spline_0_0 () Real)
(declare-fun sx_d_spline_0_t () Real)
(declare-fun sx_d_spline_1_0 () Real)
(declare-fun sx_d_spline_1_t () Real)
(declare-fun sx_d_0_0 () Real)
(declare-fun sx_d_0_t () Real)
(declare-fun sx_d_1_0 () Real)
(declare-fun sx_d_1_t () Real)
(declare-fun sx_0_0_0 () Real)
(declare-fun sx_0_0_t () Real)
(declare-fun sx_0_1_0 () Real)
(declare-fun sx_0_1_t () Real)
(declare-fun sx_0_0 () Real)
(declare-fun sx_0_t () Real)
(declare-fun sx_1_0 () Real)
(declare-fun sx_1_t () Real)
(declare-fun simtime_0_0 () Real)
(declare-fun simtime_0_t () Real)
(declare-fun simtime_1_0 () Real)
(declare-fun simtime_1_t () Real)
(declare-fun schedtime_0_0 () Real)
(declare-fun schedtime_0_t () Real)
(declare-fun schedtime_1_0 () Real)
(declare-fun schedtime_1_t () Real)
(declare-fun lookahead_0_0 () Real)
(declare-fun lookahead_0_t () Real)
(declare-fun lookahead_1_0 () Real)
(declare-fun lookahead_1_t () Real)
(declare-fun kappa_d_spline_0_0 () Real)
(declare-fun kappa_d_spline_0_t () Real)
(declare-fun kappa_d_spline_1_0 () Real)
(declare-fun kappa_d_spline_1_t () Real)
(declare-fun delta_0_0 () Real)
(declare-fun delta_0_t () Real)
(declare-fun delta_1_0 () Real)
(declare-fun delta_1_t () Real)
(declare-fun Psi_dot_d_spline_0_0 () Real)
(declare-fun Psi_dot_d_spline_0_t () Real)
(declare-fun Psi_dot_d_spline_1_0 () Real)
(declare-fun Psi_dot_d_spline_1_t () Real)
(declare-fun Psi_dot_d_0_0 () Real)
(declare-fun Psi_dot_d_0_t () Real)
(declare-fun Psi_dot_d_1_0 () Real)
(declare-fun Psi_dot_d_1_t () Real)
(declare-fun Psi_dot_0_0 () Real)
(declare-fun Psi_dot_0_t () Real)
(declare-fun Psi_dot_1_0 () Real)
(declare-fun Psi_dot_1_t () Real)
(declare-fun Psi_d_spline_0_0 () Real)
(declare-fun Psi_d_spline_0_t () Real)
(declare-fun Psi_d_spline_1_0 () Real)
(declare-fun Psi_d_spline_1_t () Real)
(declare-fun Psi_d_0_0 () Real)
(declare-fun Psi_d_0_t () Real)
(declare-fun Psi_d_1_0 () Real)
(declare-fun Psi_d_1_t () Real)
(declare-fun Psi_0_0 () Real)
(declare-fun Psi_0_t () Real)
(declare-fun Psi_1_0 () Real)
(declare-fun Psi_1_t () Real)
(declare-fun Beta_0_0 () Real)
(declare-fun Beta_0_t () Real)
(declare-fun Beta_1_0 () Real)
(declare-fun Beta_1_t () Real)
(declare-fun time_0 () Real)
(declare-fun time_1 () Real)
(declare-fun mode_0 () Real)
(declare-fun mode_1 () Real)
(define-ode flow_1 ((= d/dt[Beta] (- (+ (* (- (/ (- (* 108000 1.515) (* 108000 1.292)) (* (* 2273 v) v)) 1) Psi_dot) (/ (* 108000 delta) (* 2273 v))) (/ (* (+ 108000 108000) Beta) (* 2273 v)))) (= d/dt[Psi] Psi_dot) (= d/dt[Psi_d] (/ -11.11 (/ (* (^ (+ (* (- waypointx sx_0) (- waypointx sx_0)) (* (- waypointy sy_0) (- waypointy sy_0))) 0.5) (^ (+ (* (- waypointx sx_0) (- waypointx sx_0)) (* (- waypointy sy_0) (- waypointy sy_0))) 0.5)) (* 2 (- waypointx sx_0))))) (= d/dt[Psi_d_spline] 0) (= d/dt[Psi_dot] (+ (- (/ (* (- (* 108000 1.515) (* 108000 1.292)) Beta) 4423) (* (/ (+ (* (* 1.292 1.292) 108000) (* (* 1.515 1.515) 108000)) 4423) (/ Psi_dot v))) (/ (* (* 1.292 108000) delta) 4423))) (= d/dt[Psi_dot_d] 0) (= d/dt[Psi_dot_d_spline] 0) (= d/dt[delta] (- (+ (+ (* 2 (- (* (cos Psi_d) (- sy_d sy)) (* (sin Psi_d) (- sx_d sx)))) (* 12 (- Psi_d Psi))) (* 4 (- Psi_dot_d Psi_dot))) (* 2 delta))) (= d/dt[kappa_d_spline] 0) (= d/dt[lookahead] 0) (= d/dt[schedtime] 1) (= d/dt[simtime] 0) (= d/dt[sx] (* v (cos (+ Beta Psi)))) (= d/dt[sx_0] 0) (= d/dt[sx_d] (* 11.11 (cos Psi_d))) (= d/dt[sx_d_spline] 0) (= d/dt[sy] (* v (sin (+ Beta Psi)))) (= d/dt[sy_0] 0) (= d/dt[sy_d] (* 11.11 (sin Psi_d))) (= d/dt[sy_d_spline] 0) (= d/dt[tau] 1) (= d/dt[v] (+ (* 1 (+ (* (cos Psi_d) (- sx_d sx)) (* (sin Psi_d) (- sy_d sy)))) (* 10 (- 11.11 v)))) (= d/dt[waypointx] 0) (= d/dt[waypointy] 0)))
(define-ode flow_2 ((= d/dt[Beta] 0) (= d/dt[Psi] 0) (= d/dt[Psi_d] 0) (= d/dt[Psi_d_spline] (* 11.11 kappa_d_spline)) (= d/dt[Psi_dot] 0) (= d/dt[Psi_dot_d] 0) (= d/dt[Psi_dot_d_spline] (* 11.11 (+ (+ (* (/ (* -0.5 (+ (- (+ (* -2 0) (* 11 0)) (* 18 0.006046)) (* 9 -0.000322))) 33.8316) 11.11) (* (* (* (* 2 (/ (* 4.5 (+ (- (+ 0 (* 2 0)) (* 5 0.006046)) (* 4 -0.000322))) (* 33.8316 33.8316))) 11.11) 11.11) simtime)) (* (* (* (* (* (* 3 (/ (* -4.5 (+ (- (+ 0 0) (* 3 0.006046)) (* 3 -0.000322))) (* (* 33.8316 33.8316) 33.8316))) 11.11) 11.11) 11.11) simtime) simtime)))) (= d/dt[delta] 0) (= d/dt[kappa_d_spline] (+ (+ (* (/ (* -0.5 (+ (- (+ (* -2 0) (* 11 0)) (* 18 0.006046)) (* 9 -0.000322))) 33.8316) 11.11) (* (* (* (* 2 (/ (* 4.5 (+ (- (+ 0 (* 2 0)) (* 5 0.006046)) (* 4 -0.000322))) (* 33.8316 33.8316))) 11.11) 11.11) simtime)) (* (* (* (* (* (* 3 (/ (* -4.5 (+ (- (+ 0 0) (* 3 0.006046)) (* 3 -0.000322))) (* (* 33.8316 33.8316) 33.8316))) 11.11) 11.11) 11.11) simtime) simtime))) (= d/dt[lookahead] 0) (= d/dt[schedtime] 0) (= d/dt[simtime] 1) (= d/dt[sx] 0) (= d/dt[sx_0] 0) (= d/dt[sx_d] 0) (= d/dt[sx_d_spline] (* 11.11 (cos Psi_d_spline))) (= d/dt[sy] 0) (= d/dt[sy_0] 0) (= d/dt[sy_d] 0) (= d/dt[sy_d_spline] (* 11.11 (sin Psi_d_spline))) (= d/dt[tau] 0) (= d/dt[v] 0) (= d/dt[waypointx] 0) (= d/dt[waypointy] 0)))
(assert (<= -5 waypointy_0_0))
(assert (<= waypointy_0_0 5))
(assert (<= -5 waypointy_0_t))
(assert (<= waypointy_0_t 5))
(assert (<= -5 waypointy_1_0))
(assert (<= waypointy_1_0 5))
(assert (<= -5 waypointy_1_t))
(assert (<= waypointy_1_t 5))
(assert (<= 0 waypointx_0_0))
(assert (<= waypointx_0_0 35))
(assert (<= 0 waypointx_0_t))
(assert (<= waypointx_0_t 35))
(assert (<= 0 waypointx_1_0))
(assert (<= waypointx_1_0 35))
(assert (<= 0 waypointx_1_t))
(assert (<= waypointx_1_t 35))
(assert (<= 6 v_0_0))
(assert (<= v_0_0 12))
(assert (<= 6 v_0_t))
(assert (<= v_0_t 12))
(assert (<= 6 v_1_0))
(assert (<= v_1_0 12))
(assert (<= 6 v_1_t))
(assert (<= v_1_t 12))
(assert (<= 0 tau_0_0))
(assert (<= tau_0_0 2))
(assert (<= 0 tau_0_t))
(assert (<= tau_0_t 2))
(assert (<= 0 tau_1_0))
(assert (<= tau_1_0 2))
(assert (<= 0 tau_1_t))
(assert (<= tau_1_t 2))
(assert (<= -20 sy_d_spline_0_0))
(assert (<= sy_d_spline_0_0 20))
(assert (<= -20 sy_d_spline_0_t))
(assert (<= sy_d_spline_0_t 20))
(assert (<= -20 sy_d_spline_1_0))
(assert (<= sy_d_spline_1_0 20))
(assert (<= -20 sy_d_spline_1_t))
(assert (<= sy_d_spline_1_t 20))
(assert (<= -20 sy_d_0_0))
(assert (<= sy_d_0_0 20))
(assert (<= -20 sy_d_0_t))
(assert (<= sy_d_0_t 20))
(assert (<= -20 sy_d_1_0))
(assert (<= sy_d_1_0 20))
(assert (<= -20 sy_d_1_t))
(assert (<= sy_d_1_t 20))
(assert (<= -20 sy_0_0_0))
(assert (<= sy_0_0_0 20))
(assert (<= -20 sy_0_0_t))
(assert (<= sy_0_0_t 20))
(assert (<= -20 sy_0_1_0))
(assert (<= sy_0_1_0 20))
(assert (<= -20 sy_0_1_t))
(assert (<= sy_0_1_t 20))
(assert (<= -20 sy_0_0))
(assert (<= sy_0_0 20))
(assert (<= -20 sy_0_t))
(assert (<= sy_0_t 20))
(assert (<= -20 sy_1_0))
(assert (<= sy_1_0 20))
(assert (<= -20 sy_1_t))
(assert (<= sy_1_t 20))
(assert (<= 0 sx_d_spline_0_0))
(assert (<= sx_d_spline_0_0 100))
(assert (<= 0 sx_d_spline_0_t))
(assert (<= sx_d_spline_0_t 100))
(assert (<= 0 sx_d_spline_1_0))
(assert (<= sx_d_spline_1_0 100))
(assert (<= 0 sx_d_spline_1_t))
(assert (<= sx_d_spline_1_t 100))
(assert (<= 0 sx_d_0_0))
(assert (<= sx_d_0_0 100))
(assert (<= 0 sx_d_0_t))
(assert (<= sx_d_0_t 100))
(assert (<= 0 sx_d_1_0))
(assert (<= sx_d_1_0 100))
(assert (<= 0 sx_d_1_t))
(assert (<= sx_d_1_t 100))
(assert (<= 0 sx_0_0_0))
(assert (<= sx_0_0_0 100))
(assert (<= 0 sx_0_0_t))
(assert (<= sx_0_0_t 100))
(assert (<= 0 sx_0_1_0))
(assert (<= sx_0_1_0 100))
(assert (<= 0 sx_0_1_t))
(assert (<= sx_0_1_t 100))
(assert (<= 0 sx_0_0))
(assert (<= sx_0_0 100))
(assert (<= 0 sx_0_t))
(assert (<= sx_0_t 100))
(assert (<= 0 sx_1_0))
(assert (<= sx_1_0 100))
(assert (<= 0 sx_1_t))
(assert (<= sx_1_t 100))
(assert (<= 0 simtime_0_0))
(assert (<= simtime_0_0 2))
(assert (<= 0 simtime_0_t))
(assert (<= simtime_0_t 2))
(assert (<= 0 simtime_1_0))
(assert (<= simtime_1_0 2))
(assert (<= 0 simtime_1_t))
(assert (<= simtime_1_t 2))
(assert (<= 0 schedtime_0_0))
(assert (<= schedtime_0_0 2))
(assert (<= 0 schedtime_0_t))
(assert (<= schedtime_0_t 2))
(assert (<= 0 schedtime_1_0))
(assert (<= schedtime_1_0 2))
(assert (<= 0 schedtime_1_t))
(assert (<= schedtime_1_t 2))
(assert (<= 0 lookahead_0_0))
(assert (<= lookahead_0_0 2))
(assert (<= 0 lookahead_0_t))
(assert (<= lookahead_0_t 2))
(assert (<= 0 lookahead_1_0))
(assert (<= lookahead_1_0 2))
(assert (<= 0 lookahead_1_t))
(assert (<= lookahead_1_t 2))
(assert (<= -2 kappa_d_spline_0_0))
(assert (<= kappa_d_spline_0_0 2.06))
(assert (<= -2 kappa_d_spline_0_t))
(assert (<= kappa_d_spline_0_t 2.06))
(assert (<= -2 kappa_d_spline_1_0))
(assert (<= kappa_d_spline_1_0 2.06))
(assert (<= -2 kappa_d_spline_1_t))
(assert (<= kappa_d_spline_1_t 2.06))
(assert (<= -2 delta_0_0))
(assert (<= delta_0_0 2.04))
(assert (<= -2 delta_0_t))
(assert (<= delta_0_t 2.04))
(assert (<= -2 delta_1_0))
(assert (<= delta_1_0 2.04))
(assert (<= -2 delta_1_t))
(assert (<= delta_1_t 2.04))
(assert (<= -2 Psi_dot_d_spline_0_0))
(assert (<= Psi_dot_d_spline_0_0 2.08))
(assert (<= -2 Psi_dot_d_spline_0_t))
(assert (<= Psi_dot_d_spline_0_t 2.08))
(assert (<= -2 Psi_dot_d_spline_1_0))
(assert (<= Psi_dot_d_spline_1_0 2.08))
(assert (<= -2 Psi_dot_d_spline_1_t))
(assert (<= Psi_dot_d_spline_1_t 2.08))
(assert (<= -2 Psi_dot_d_0_0))
(assert (<= Psi_dot_d_0_0 2.08))
(assert (<= -2 Psi_dot_d_0_t))
(assert (<= Psi_dot_d_0_t 2.08))
(assert (<= -2 Psi_dot_d_1_0))
(assert (<= Psi_dot_d_1_0 2.08))
(assert (<= -2 Psi_dot_d_1_t))
(assert (<= Psi_dot_d_1_t 2.08))
(assert (<= -2 Psi_dot_0_0))
(assert (<= Psi_dot_0_0 2.05))
(assert (<= -2 Psi_dot_0_t))
(assert (<= Psi_dot_0_t 2.05))
(assert (<= -2 Psi_dot_1_0))
(assert (<= Psi_dot_1_0 2.05))
(assert (<= -2 Psi_dot_1_t))
(assert (<= Psi_dot_1_t 2.05))
(assert (<= -2 Psi_d_spline_0_0))
(assert (<= Psi_d_spline_0_0 2.07))
(assert (<= -2 Psi_d_spline_0_t))
(assert (<= Psi_d_spline_0_t 2.07))
(assert (<= -2 Psi_d_spline_1_0))
(assert (<= Psi_d_spline_1_0 2.07))
(assert (<= -2 Psi_d_spline_1_t))
(assert (<= Psi_d_spline_1_t 2.07))
(assert (<= -2 Psi_d_0_0))
(assert (<= Psi_d_0_0 2.07))
(assert (<= -2 Psi_d_0_t))
(assert (<= Psi_d_0_t 2.07))
(assert (<= -2 Psi_d_1_0))
(assert (<= Psi_d_1_0 2.07))
(assert (<= -2 Psi_d_1_t))
(assert (<= Psi_d_1_t 2.07))
(assert (<= -2 Psi_0_0))
(assert (<= Psi_0_0 2.04))
(assert (<= -2 Psi_0_t))
(assert (<= Psi_0_t 2.04))
(assert (<= -2 Psi_1_0))
(assert (<= Psi_1_0 2.04))
(assert (<= -2 Psi_1_t))
(assert (<= Psi_1_t 2.04))
(assert (<= -2 Beta_0_0))
(assert (<= Beta_0_0 2.03))
(assert (<= -2 Beta_0_t))
(assert (<= Beta_0_t 2.03))
(assert (<= -2 Beta_1_0))
(assert (<= Beta_1_0 2.03))
(assert (<= -2 Beta_1_t))
(assert (<= Beta_1_t 2.03))
(assert (<= 0 time_0 [0.000000]))
(assert (<= time_0 2 [0.000000]))
(assert (<= 0 time_1 [0.000000]))
(assert (<= time_1 2 [0.000000]))
(assert (<= 1 mode_0))
(assert (<= mode_0 2))
(assert (<= 1 mode_1))
(assert (<= mode_1 2))
(assert (and (and (= Psi_dot_d_spline_0_0 0) (= sy_d_spline_0_0 0) (= sx_d_spline_0_0 0) (= Psi_d_spline_0_0 0) (= kappa_d_spline_0_0 0) (= simtime_0_0 0) (= lookahead_0_0 0.4) (= waypointy_0_0 0) (= waypointx_0_0 0) (= Psi_dot_d_0_0 0) (= sy_d_0_0 0) (= sx_d_0_0 0) (= Psi_d_0_0 0) (= delta_0_0 0) (= sy_0_0_0 sy_0_0) (= sx_0_0_0 sx_0_0) (= sy_0_0 0) (= sx_0_0 0) (= v_0_0 10.9) (= Psi_dot_0_0 0) (= Psi_0_0 0) (= Beta_0_0 0) (= tau_0_0 0)) (= mode_0 2) (= waypointy_0_t (+ waypointy_0_0 (* 0 time_0))) (= waypointx_0_t (+ waypointx_0_0 (* 0 time_0))) (= v_0_t (+ v_0_0 (* 0 time_0))) (= tau_0_t (+ tau_0_0 (* 0 time_0))) (= sy_d_0_t (+ sy_d_0_0 (* 0 time_0))) (= sy_0_0_t (+ sy_0_0_0 (* 0 time_0))) (= sy_0_t (+ sy_0_0 (* 0 time_0))) (= sx_d_0_t (+ sx_d_0_0 (* 0 time_0))) (= sx_0_0_t (+ sx_0_0_0 (* 0 time_0))) (= sx_0_t (+ sx_0_0 (* 0 time_0))) (= simtime_0_t (+ simtime_0_0 (* 1 time_0))) (= schedtime_0_t (+ schedtime_0_0 (* 0 time_0))) (= lookahead_0_t (+ lookahead_0_0 (* 0 time_0))) (= delta_0_t (+ delta_0_0 (* 0 time_0))) (= Psi_dot_d_0_t (+ Psi_dot_d_0_0 (* 0 time_0))) (= Psi_dot_0_t (+ Psi_dot_0_0 (* 0 time_0))) (= Psi_d_0_t (+ Psi_d_0_0 (* 0 time_0))) (= Psi_0_t (+ Psi_0_0 (* 0 time_0))) (= Beta_0_t (+ Beta_0_0 (* 0 time_0))) (= [Beta_0_t Psi_0_t Psi_d_0_t Psi_d_spline_0_t Psi_dot_0_t Psi_dot_d_0_t Psi_dot_d_spline_0_t delta_0_t kappa_d_spline_0_t lookahead_0_t schedtime_0_t simtime_0_t sx_0_t sx_0_0_t sx_d_0_t sx_d_spline_0_t sy_0_t sy_0_0_t sy_d_0_t sy_d_spline_0_t tau_0_t v_0_t waypointx_0_t waypointy_0_t] (integral 0. time_0 [Beta_0_0 Psi_0_0 Psi_d_0_0 Psi_d_spline_0_0 Psi_dot_0_0 Psi_dot_d_0_0 Psi_dot_d_spline_0_0 delta_0_0 kappa_d_spline_0_0 lookahead_0_0 schedtime_0_0 simtime_0_0 sx_0_0 sx_0_0_0 sx_d_0_0 sx_d_spline_0_0 sy_0_0 sy_0_0_0 sy_d_0_0 sy_d_spline_0_0 tau_0_0 v_0_0 waypointx_0_0 waypointy_0_0] flow_2)) (= mode_0 2) (forall_t 2 [0 time_0] (>= v_0_t 0)) (>= v_0_t 0) (>= v_0_0 0) (= mode_1 1) (= simtime_0_t lookahead_0_t) (= sy_0_1_0 sy_0_t) (= sx_0_1_0 sx_0_t) (= Psi_dot_d_spline_1_0 Psi_dot_d_spline_0_t) (= sy_d_spline_1_0 sy_d_spline_0_t) (= sx_d_spline_1_0 sx_d_spline_0_t) (= Psi_d_spline_1_0 Psi_d_spline_0_t) (= kappa_d_spline_1_0 kappa_d_spline_0_t) (= lookahead_1_0 (+ lookahead_0_t 0.4)) (= schedtime_1_0 schedtime_0_t) (= simtime_1_0 simtime_0_t) (= waypointy_1_0 sy_d_spline_0_t) (= waypointx_1_0 sx_d_spline_0_t) (= Psi_dot_d_1_0 Psi_dot_d_0_t) (= sy_d_1_0 sy_d_0_t) (= sx_d_1_0 sx_d_0_t) (= Psi_d_1_0 Psi_d_0_t) (= delta_1_0 delta_0_t) (= sy_1_0 sy_0_t) (= sx_1_0 sx_0_t) (= v_1_0 v_0_t) (= Psi_dot_1_0 Psi_dot_0_t) (= Psi_1_0 Psi_0_t) (= Beta_1_0 Beta_0_t) (= tau_1_0 tau_0_t) (= waypointy_1_t (+ waypointy_1_0 (* 0 time_1))) (= waypointx_1_t (+ waypointx_1_0 (* 0 time_1))) (= tau_1_t (+ tau_1_0 (* 1 time_1))) (= sy_d_spline_1_t (+ sy_d_spline_1_0 (* 0 time_1))) (= sy_0_1_t (+ sy_0_1_0 (* 0 time_1))) (= sx_d_spline_1_t (+ sx_d_spline_1_0 (* 0 time_1))) (= sx_0_1_t (+ sx_0_1_0 (* 0 time_1))) (= simtime_1_t (+ simtime_1_0 (* 0 time_1))) (= schedtime_1_t (+ schedtime_1_0 (* 1 time_1))) (= lookahead_1_t (+ lookahead_1_0 (* 0 time_1))) (= kappa_d_spline_1_t (+ kappa_d_spline_1_0 (* 0 time_1))) (= Psi_dot_d_spline_1_t (+ Psi_dot_d_spline_1_0 (* 0 time_1))) (= Psi_dot_d_1_t (+ Psi_dot_d_1_0 (* 0 time_1))) (= Psi_d_spline_1_t (+ Psi_d_spline_1_0 (* 0 time_1))) (= [Beta_1_t Psi_1_t Psi_d_1_t Psi_d_spline_1_t Psi_dot_1_t Psi_dot_d_1_t Psi_dot_d_spline_1_t delta_1_t kappa_d_spline_1_t lookahead_1_t schedtime_1_t simtime_1_t sx_1_t sx_0_1_t sx_d_1_t sx_d_spline_1_t sy_1_t sy_0_1_t sy_d_1_t sy_d_spline_1_t tau_1_t v_1_t waypointx_1_t waypointy_1_t] (integral 0. time_1 [Beta_1_0 Psi_1_0 Psi_d_1_0 Psi_d_spline_1_0 Psi_dot_1_0 Psi_dot_d_1_0 Psi_dot_d_spline_1_0 delta_1_0 kappa_d_spline_1_0 lookahead_1_0 schedtime_1_0 simtime_1_0 sx_1_0 sx_0_1_0 sx_d_1_0 sx_d_spline_1_0 sy_1_0 sy_0_1_0 sy_d_1_0 sy_d_spline_1_0 tau_1_0 v_1_0 waypointx_1_0 waypointy_1_0] flow_1)) (= mode_1 1) (forall_t 1 [0 time_1] (>= v_1_t 0)) (>= v_1_t 0) (>= v_1_0 0) (= mode_1 1) (> tau_1_t 0.3)))
(check-sat)
(exit)
