Code/simulation_1_0.output
                                                                                              ODE Progress [FWD]:  Time =    0.13501 / 0.40      33%  Box Width =  100.00000	                                                                                              ODE Progress [FWD]:  Time =    0.33753 / 0.40      84%  Box Width =  100.00000	                                                                                              ODE Progress [FWD]:  Time =    0.40000 / 0.40     100%  Box Width =  100.00000	 [Done] 
                                                                                              ODE Progress [FWD]:  Time =    0.04486 / 2.00       2%  Box Width =  100.00000	                                                                                              ODE Progress [FWD]:  Time =    0.11216 / 2.00       5%  Box Width =  100.00000	                                                                                              ODE Progress [FWD]:  Time =    0.17896 / 2.00       8%  Box Width =  100.00000	                                                                                              ODE Progress [FWD]:  Time =    0.24146 / 2.00      12%  Box Width =  100.00000	                                                                                              ODE Progress [FWD]:  Time =    0.30201 / 2.00      15%  Box Width =  100.00000	                                                                                              ODE Progress [FWD]:  Time =    0.36451 / 2.00      18%  Box Width =  100.00000	                                                                                              ODE Progress [FWD]:  Time =    0.42701 / 2.00      21%  Box Width =  100.00000	                                                                                              ODE Progress [FWD]:  Time =    0.48951 / 2.00      24%  Box Width =  100.00000	                                                                                              ODE Progress [FWD]:  Time =    0.55201 / 2.00      27%  Box Width =  100.00000	                                                                                              ODE Progress [FWD]:  Time =    0.61841 / 2.00      30%  Box Width =  100.00000	                                                                                              ODE Progress [FWD]:  Time =    0.68482 / 2.00      34%  Box Width =  100.00000	                                                                                              ODE Progress [FWD]:  Time =    0.75122 / 2.00      37%  Box Width =  100.00000	                                                                                              ODE Progress [FWD]:  Time =    0.81763 / 2.00      40%  Box Width =  100.00000	                                                                                              ODE Progress [FWD]:  Time =    0.88404 / 2.00      44%  Box Width =  100.00000	                                                                                              ODE Progress [FWD]:  Time =    0.95044 / 2.00      47%  Box Width =  100.00000	                                                                                              ODE Progress [FWD]:  Time =    1.02076 / 2.00      51%  Box Width =  100.00000	                                                                                              ODE Progress [FWD]:  Time =    1.08716 / 2.00      54%  Box Width =  100.00000	                                                                                              ODE Progress [FWD]:  Time =    1.15357 / 2.00      57%  Box Width =  100.00000	                                                                                              ODE Progress [FWD]:  Time =    1.21997 / 2.00      60%  Box Width =  100.00000	                                                                                              ODE Progress [FWD]:  Time =    1.28638 / 2.00      64%  Box Width =  100.00000	                                                                                              ODE Progress [FWD]:  Time =    1.35279 / 2.00      67%  Box Width =  100.00000	                                                                                              ODE Progress [FWD]:  Time =    1.41529 / 2.00      70%  Box Width =  100.00000	                                                                                              ODE Progress [FWD]:  Time =    1.47779 / 2.00      73%  Box Width =  100.00000	                                                                                              ODE Progress [FWD]:  Time =    1.54029 / 2.00      77%  Box Width =  100.00000	                                                                                              ODE Progress [FWD]:  Time =    1.60279 / 2.00      80%  Box Width =  100.00000	                                                                                              ODE Progress [FWD]:  Time =    1.66919 / 2.00      83%  Box Width =  100.00000	                                                                                              ODE Progress [FWD]:  Time =    1.73169 / 2.00      86%  Box Width =  100.00000	                                                                                              ODE Progress [FWD]:  Time =    1.79810 / 2.00      89%  Box Width =  100.00000	                                                                                              ODE Progress [FWD]:  Time =    1.86451 / 2.00      93%  Box Width =  100.00000	                                                                                              ODE Progress [FWD]:  Time =    1.93091 / 2.00      96%  Box Width =  100.00000	                                                                                              ODE Progress [FWD]:  Time =    1.99732 / 2.00      99%  Box Width =  100.00000	                                                                                              ODE Progress [FWD]:  Time =    2.00000 / 2.00     100%  Box Width =  100.00000	 [Done] 
unsat
